
Gurobi 11.0.3 (linux64) logging started Fri Nov 22 11:07:31 2024

Set parameter LogFile to value "/home/yihong/Coding/OR_SUC/SUC_results_bigM100000_thread4/case24_ieee_rts_theta0.1_epsilon0.05_gurobi_seed310000_num_gen100_N_WDR100_load_scaling_factor1_exact_T28quadra_cost.txt"
Set parameter TimeLimit to value 3600
Gurobi Optimizer version 11.0.3 build v11.0.3rc0 (linux64 - "Ubuntu 20.04.6 LTS")

CPU model: AMD EPYC 7532 32-Core Processor, instruction set [SSE2|AVX|AVX2]
Thread count: 64 physical cores, 128 logical processors, using up to 4 threads

Optimize a model with 67335 rows, 34921 columns and 1546834 nonzeros
Model fingerprint: 0xfbc61c8e
Model has 2800 quadratic constraints
Variable types: 32021 continuous, 2900 integer (2900 binary)
Coefficient statistics:
  Matrix range     [3e-04, 1e+05]
  QMatrix range    [2e-03, 8e-03]
  QLMatrix range   [3e-01, 6e+01]
  Objective range  [1e+00, 1e+00]
  Bounds range     [1e+00, 1e+00]
  RHS range        [1e+00, 1e+05]
Presolve removed 54991 rows and 14780 columns
Presolve time: 0.38s
Presolved: 12344 rows, 20141 columns, 69621 nonzeros
Presolved model has 2800 quadratic constraint(s)
Variable types: 17244 continuous, 2897 integer (2897 binary)

Root relaxation: objective 3.807412e+04, 9767 iterations, 0.30 seconds (0.44 work units)

    Nodes    |    Current Node    |     Objective Bounds      |     Work
 Expl Unexpl |  Obj  Depth IntInf | Incumbent    BestBd   Gap | It/Node Time

     0     0 38074.1180    0   39          - 38074.1180      -     -    0s
     0     0 325269.554    0  952          - 325269.554      -     -    1s
     0     0 389606.438    0  910          - 389606.438      -     -    1s
     0     0 731916.969    0  930          - 731916.969      -     -    2s
     0     0 733002.874    0  603          - 733002.874      -     -    2s
     0     0 734224.849    0  469          - 734224.849      -     -    2s
     0     0 734399.404    0  433          - 734399.404      -     -    2s
     0     0 734524.577    0  451          - 734524.577      -     -    3s
     0     0 734524.654    0  451          - 734524.654      -     -    3s
     0     2 734524.654    0  451          - 734524.654      -     -    3s
   112   213 734565.874   26  420          - 734529.802      -  24.2    5s
H  854   303                    734620.34649 734530.928  0.01%   9.1    7s
*  854   303             216    734620.34649 734530.928  0.01%   9.3    7s

Cutting planes:
  Gomory: 5
  Implied bound: 590
  MIR: 140
  Flow cover: 220
  RLT: 1

Explored 985 nodes (45431 simplex iterations) in 7.89 seconds (10.35 work units)
Thread count was 4 (of 128 available processors)

Solution count 2: 734620 734620 

Optimal solution found (tolerance 1.00e-03)
Warning: max constraint violation (2.2077e-08) exceeds tolerance
Best objective 7.346203464906e+05, best bound 7.345344728602e+05, gap 0.0117%
